c Lingeling SAT Solver
c 
c Version ala b02aa1a04343558c4252b5f4a723be021964f652
c 
c Copyright (C) 2010-2012 Armin Biere JKU Linz Austria.
c All rights reserved.
c 
c released Sat Oct 13 14:05:26 CEST 2012
c compiled Sat Feb 16 02:48:12 EST 2013
c 
c gcc (Debian 4.4.5-8) 4.4.5
c -Wall -O3 -DNLGLOG -DNDEBUG -DNCHKSOL -DNLGLPICOSAT 
c Linux greencar2 2.6.32-5-amd64 x86_64
c 
c reading input file p75.cnf
c no embedded options
c found 'p cnf 217439 668819' header
c read 217439 variables, 668819 clauses, 1391345 literals in 0.0 seconds
c
c feature vars 217439
c feature lits.total 1391345
c feature lits.pos 742590
c feature lits.neg 648755
c feature clauses.total 668819
c feature clauses.unit 81335
c feature clauses.bin 472442
c feature clauses.trn 113642
c feature clauses.lrg 1400
c feature cog.val.min 1
c feature cog.val.avg 96821
c feature cog.val.max 207997
c feature cog.var.min 1
c feature cog.var.avg 108720
c feature cog.var.max 217438
c
c
c --abstime=0
c --acts=2
c --actavgmax=120
c --actstdmin=20
c --actstdmax=80
c --agile=23
c --bias=2
c --block=1
c --blkrtc=0
c --blkclslim=2000
c --blkocclim=2000
c --blkmaxeff=2147483647
c --blkmineff=10000000
c --blkreleff=20
c --card=0
c --cce=3
c --ccemaxeff=100000000
c --ccemineff=5000000
c --ccereleff=3
c --check=0
c --cgrclsr=1
c --cgrmaxority=20
c --cgrmaxeff=8000000
c --cgrmineff=200000
c --cgreleff=1
c --cgrexteq=1
c --cgrextand=1
c --cgrextunits=1
c --cgrextite=1
c --cgrextxor=1
c --cliff=1
c --cliffreleff=8
c --cliffmineff=10000000
c --cliffmaxeff=100000000
c --compact=0
c --decompose=1
c --defragint=10000000
c --defragfree=50
c --elim=1
c --elmrtc=0
c --elmblk=1
c --elmclslim=1000
c --elmocclim=1000
c --elmaxeff=100000000
c --elmineff=5000000
c --elmreleff=10
c --sleeponabort=0
c --exitonabort=0
c --flipping=1
c --flipint=2
c --flipdur=50
c --fliptop=1
c --force=0
c --gauss=1
c --gaussextrall=1
c --gaussmaxor=20
c --gaussexptrn=1
c --gaussmaxeff=50000000
c --gaussmineff=2000000
c --gaussreleff=2
c --gluescale=2
c --gluekeep=0
c --inprocessing=1
c --cintinc=10000
c --irrlim=20
c --lift=1
c --lftmaxeff=20000000
c --lftmineff=500000
c --lftreleff=6
c --lhbr=1
c --lkhd=1
c --clim=-1
c --mocint=1000
c --move=2
c --log=-1
c --otfs=1
c --phase=0
c --phaseneginit=0
c --plain=0
c --probe=1
c --prbasicmaxeff=100000000
c --prbasicmineff=1000000
c --prbasicreleff=10
c --prbasic=1
c --prbasicroundlim=9
c --queuemergelim=10000
c --queuefactor=833
c --queueinc=20
c --rmincpen=4
c --seed=0
c --smallirr=90
c --smallve=1
c --smallvevars=12
c --randec=1
c --randecint=1000
c --redfixed=0
c --redlbound=0
c --redlexpfac=10
c --redldoutfac=0
c --redloutinc=10000
c --redlinit=1000
c --redlinc=1000
c --redinoutinc=100
c --redlmininc=10
c --redlmaxinc=200
c --redlminrel=10
c --redlmaxrel=300
c --redlminabs=500
c --redlmaxabs=1000000
c --reduce=1
c --restart=2
c --restartint=5
c --rstinoutinc=110
c --simplify=1
c --simpdelay=100
c --simpen=4
c --sizepen=1000000
c --sizemaxpen=3
c --sortlits=0
c --syncint=111111
c --termint=122222
c --ternres=1
c --ternresrtc=0
c --trnrmineff=4000000
c --trnrmaxeff=40000000
c --trnreleff=10
c --transred=1
c --trdmineff=100000
c --trdmaxeff=2000000
c --trdreleff=10
c --unhide=1
c --unhdextstamp=1
c --unhdhbr=0
c --unhdmaxeff=20000000
c --unhdmineff=1000000
c --unhdreleff=4
c --unhdlnpr=3
c --unhdroundlim=5
c --verbose=1
c --witness=1
c [limits] no conflict limit
c [limits] simplification delayed by 100 to 100 conflicts
c 
c  seconds         irredundant          redundant clauses agility   height
c          variables clauses conflicts large binary ternary    glue         MB
c 
c *    0.0  118042   489222         0       0      0     0  63  0.0   0.0   41
c [cut-width] 161954, max 255868, min4 98780 at 75%, min10 36743 at 88%
c [decision-order] bias 1, old 1
c [queue-schedule-all-variables]
c s    0.0  118042   489222         0       0      0     0  63  0.0   0.0   41
c [simplification-1] limit hit at 100 conflicts
c [simplification-1] simplification penalty of 4
c [ternres-1] limit 4000000 with penalty 0 = 0 + 0
c [ternres-1] all 118042 free variables schedulable
c [ternres-1] 0 ternary resolvents (0 bin, 0 trn)
c [ternres-1] 514 variables remain 0% (117528 retained)
c [gauss-1] limit 2000000 penalty 0 = 0 + 0
c [gauss-1] extracted 171509 xors of average arity 2.0
c [gauss-1] connected 343021 occurrences of 105347 variables (average 3.3)
c [gauss-1] limit 2000000 penalty 0 = 0 + 0
c d    0.8   53659   239647       100     100      0     0  44  5.4 242.3   20
c [gauss-1] exported 0 unary, 1 binary and 0 ternary equations
c G    0.8   53659   239647       100     100      0     0  44  5.4 242.3   20
c [basicprobe-1] limit 1000000 penalty 0 = 0 + 0
c [basicprobe-1-0] 4686 probes remain 9% after last round
c [basicprobe-1-0] removed 0 variables, found 8342 hbrs
c p    1.0   53659   239647       100     100   8342     0  44  5.4 242.3   24
c [cgrclsr-1] limit 200000 penalty 0 = 0 + 0
c [cgrclsr-1] all 53659 free variables schedulable
c [cgrclsr-1] fully completed congruence closure
c [lift-1] limit 500000 with penalty 0 = 0 + 0
c [lift-1] using 53659 probes 100%
c [lift-1] 53605 variables remain 100% (54 retained)
c [cliff-1] limit of 10000000 steps penalty 0 = 0 + 0
c [cliff-1] failed 2, lifted 6
c K    1.5   53648   239647       100     100  16518     0  44  5.4 242.3   24
c [unhide-1] limit 1000000 with penalty 0 = 0 + 0
c [unhide-1-1] 0 units, 1 failed, 19630 tauts, 0 hbrs, 103 literals
c u    1.6   53644   219964       100      99  16517     1  44  5.4 242.3   24
c [transred-1] limit 100000 with penalty 0 = 0 + 0
c t    1.6   53644   219963       100      99  16515     1  44  5.4 242.3   24
c [block-1] scheduling all variables this time
c [block-1] scheduled 53644 variables 100%
c [block-1] limit of 10000000 steps penalty 0 = 0 + 0
c [block-1] fully completed blocked clause elimination
c [block-1] transition to [ all 0 rem 0 ] state
c [block-1] eliminated 5200 blocked clauses
c k    1.8   53644   214744       100      99  16715  5001  44  5.4 242.3   20
c [cce-1] scheduling all variables this time
c [cce-1] limit of 10000000 steps penalty 0 = 0 + 0
c [cce-1] incomplete covered clause elimination 47812 not tried 89%
c [cce-1] transition to [ all 1 rem 1 ] state
c [cce-1] eliminated 316 covered clauses
c E    2.3   53642   214428       100      99  27861  5000  44  5.4 242.3   21
c [elim-1] scheduling all variables this time
c [elim-1] scheduled 53642 variables 100%
c [elim-1] limit of 5000000 steps penalty 0 = 0 + 0
c [elim-1] incomplete variable elimination 38251 not tried 71%
c [elim-1] transition to [ all 1 rem 1 ] state
c [elim-1] eliminated 7308 = 14% variables out of 53642
c e    3.2   46334   209787       100      52   8656   520  44  5.4 242.3   21
c [phase-1] phase bias: 1229 positive 16%, 6379 negative 84%
c [simplification-1] removed 71708 variables 60%
c [simplification-1] limit increments divided by 31
c [simplification-1] arithmetic increase of conflict limit interval by 322
c [simplification-1] new irredundant limit 2155323
c [simplification-1] new conflict limit 422
c [simplification-1] simplification penalty reduced to 3
c R    3.4   46334   209787       413     338   8660   543   5  6.5 281.6   25
c [simplification-2] limit hit at 422 conflicts
c [simplification-2] simplification penalty of 3
c [ternres-2] limit 2000000 with penalty 1 = 1 + 0
c [ternres-2] 201 schedulable variables 0%
c [ternres-2] 0 ternary resolvents (0 bin, 0 trn)
c [ternres-2] fully completed ternary resolution
c [gauss-2] limit 2000000 penalty 0 = 0 + 0
c [gauss-2] extracted 1028 xors of average arity 3.0
c [gauss-2] connected 3084 occurrences of 1570 variables (average 2.0)
c [gauss-2] limit 2000000 penalty 0 = 0 + 0
c [gauss-2] fully completed
c [gauss-2] exported 0 unary, 0 binary and 0 ternary equations
c G    3.6   46334   209787       422     342   8661   546   5  6.4 273.5   21
c [basicprobe-2] limit 500000 penalty 1 = 1 + 0
c [basicprobe-2-0] 4597 probes remain 10% after last round
c [basicprobe-2-0] removed 0 variables, found 184 hbrs
c p    3.7   46334   209787       422     342   8844   546   5  6.4 273.5   25
c [cgrclsr-2] limit 100000 penalty 1 = 1 + 0
c [cgrclsr-2] all 46334 free variables schedulable
c [cgrclsr-2] fully completed congruence closure
c [lift-2] limit 250000 with penalty 1 = 1 + 0
c [lift-2] using 46293 probes 100%
c [lift-2] 46272 variables remain 100% (62 retained)
c [cliff-2] limit of 10000000 steps penalty 0 = 0 + 0
c [cliff-2] failed 0, lifted 0
c [unhide-2] limit 1000000 with penalty 0 = 0 + 0
c [unhide-2-2] 0 units, 8 failed, 1615 tauts, 0 hbrs, 157 literals
c u    4.3   46332   209781       422     341   7834   544   5  6.4 273.5   25
c [transred-3] limit 100000 with penalty 0 = 0 + 0
c t    4.3   46332   209779       422     341   7826   544   5  6.4 273.5   25
c [block-2] scheduling all variables this time
c [block-2] scheduled 46332 variables 100%
c [block-2] limit of 10000000 steps penalty 0 = 0 + 0
c [block-2] fully completed blocked clause elimination
c [block-2] transition to [ all 0 rem 0 ] state
c [block-2] eliminated 1 blocked clauses
c k    4.5   46332   209766       422     341   7827   544   5  6.4 273.5   21
c [cce-2] 43547 variables 94% will be scheduled this time
c [cce-2] limit of 10000000 steps penalty 0 = 0 + 0
c [cce-2] 42880 variables 93% remain to be tried next time
c [cce-2] transition to [ all 0 rem 1 ] state
c [cce-2] eliminated 482 covered clauses
c E    4.8   46332   209284       422     341   8309   544   5  6.4 273.5   21
c [elim-2] 38181 variables 82% will be scheduled this time
c [elim-2] scheduled 38181 variables 82%
c [elim-2] limit of 5000000 steps penalty 0 = 0 + 0
c [elim-2] 28368 variables 61% remain to be tried next time
c [elim-2] transition to [ all 0 rem 1 ] state
c [elim-2] eliminated 1331 = 3% variables out of 46332
c e    5.8   45001   208712       422     334   5335   542   5  6.4 273.5   21
c [phase-2] phase bias: 15 positive 94%, 1 negative 6%
c [simplification-2] removed 1333 variables 2%
c [simplification-2] limit increments divided by 2
c [simplification-2] arithmetic increase of conflict limit interval by 5000
c [simplification-2] new irredundant limit 2155323
c [simplification-2] new conflict limit 5744
c [simplification-2] simplification penalty reduced to 2
c R    6.2   45001   208712       980     809   5354   604   3  6.1 262.9   25
c -    6.3   45001   208712      1269     508   5369   659   2  5.7 238.0   25
c R    6.7   45001   208712      2275    1433   5388   717   3  6.3 260.5   25
c -    7.6   45001   208712      4223    1595   5475   923   4  6.2 231.8   25
c 
c  seconds         irredundant          redundant clauses agility   height
c          variables clauses conflicts large binary ternary    glue         MB
c 
c R    7.8   45001   208712      5190    2530   5478   948   3  7.0 236.4   26
c [simplification-3] limit hit at 5744 conflicts
c [simplification-3] simplification penalty of 2
c [ternres-3] limit 1000000 with penalty 2 = 2 + 0
c [ternres-3] all 45001 free variables schedulable
c [ternres-3] 60 ternary resolvents (0 bin, 60 trn)
c [ternres-3] 31060 variables remain 69% (13941 retained)
c T    8.2   45001   208712      5744    2986   5499  1083   5  6.8 235.3   26
c [gauss-3] limit 1000000 penalty 1 = 1 + 0
c [gauss-3] extracted 526 xors of average arity 3.0
c [gauss-3] connected 1578 occurrences of 1025 variables (average 1.5)
c [gauss-3] limit 1000000 penalty 1 = 1 + 0
c [gauss-3] fully completed
c [gauss-3] exported 0 unary, 0 binary and 0 ternary equations
c G    8.3   45001   208712      5744    2986   5499  1083   5  6.8 235.3   21
c [basicprobe-3] limit 250000 penalty 2 = 2 + 0
c [basicprobe-3-0] 4442 probes remain 10% after last round
c [basicprobe-3-0] removed 0 variables, found 210 hbrs
c p    8.4   45001   208712      5744    2986   5709  1078   5  6.8 235.3   25
c [cgrclsr-3] limit 65272 based on 522180 irredundant literals
c [cgrclsr-3] all 45001 free variables schedulable
c [cgrclsr-3] fully completed congruence closure
c [lift-3] limit 125000 with penalty 2 = 2 + 0
c [lift-3] using 44942 probes 100%
c [lift-3] 44935 variables remain 100% (66 retained)
c [cliff-3] limit of 5000000 steps penalty 1 = 1 + 0
c [cliff-3] failed 0, lifted 0
c [unhide-3] limit 1000000 with penalty 0 = 0 + 0
c [unhide-3-3] 0 units, 0 failed, 1574 tauts, 0 hbrs, 922 literals
c u    8.8   45001   207143      5744    2970   6011  1063   5  6.8 235.3   25
c [transred-5] limit 644323 with penalty 0 = 0 + 0
c t    8.9   45001   207135      5744    2970   5986  1063   5  6.8 235.3   25
c [block-3] scheduling all variables this time
c [block-3] scheduled 45001 variables 100%
c [block-3] limit of 10000000 steps penalty 0 = 0 + 0
c [block-3] fully completed blocked clause elimination
c [block-3] transition to [ all 0 rem 0 ] state
c [block-3] eliminated 0 blocked clauses
c [cce-3] scheduling all variables this time
c [cce-3] limit of 10000000 steps penalty 0 = 0 + 0
c [cce-3] 41306 variables 92% remain to be tried next time
c [cce-3] transition to [ all 1 rem 1 ] state
c [cce-3] eliminated 312 covered clauses
c E    9.4   45001   206823      5744    2970   6341  1054   5  6.8 235.3   21
c [elim-3] scheduling all variables this time
c [elim-3] scheduled 45001 variables 100%
c [elim-3] limit of 5000000 steps penalty 0 = 0 + 0
c [elim-3] 27976 variables 62% remain to be tried next time
c [elim-3] transition to [ all 1 rem 1 ] state
c [elim-3] eliminated 486 = 1% variables out of 45001
c e   10.4   44515   206354      5744    2957   5565  1051   5  6.8 235.3   21
c [simplification-3] removed 486 variables 1%
c [simplification-3] no reduction of limit increments
c [simplification-3] arithmetic increase of conflict limit interval by 10000
c [simplification-3] new irredundant limit 2155323
c [simplification-3] new conflict limit 21066
c [simplification-3] simplification penalty reduced to 1
c -   11.6   44515   206354      8131    2500   5644  1284   3  6.7 237.7   25
c R   13.0   44515   206354     11666    5827   5686  1435   5  7.5 251.7   26
c 1   13.5   44515   206354     12576    6615   5714  1523   4  7.4 246.7   26
c 
c  seconds         irredundant          redundant clauses agility   height
c          variables clauses conflicts large binary ternary    glue         MB
c 
c blkd: 3 bces, 5201 removed, 1885566 resolutions, 5195335 steps
c blkd: 7768 blocking literals 2%, 0 pure
c cces: 3 cces, 1101 eliminated, 902 ate 82%, 199 abce 18%
c cces: 19612 probed, 1 lifted, 2 failed
c clff: 3 cliffs, 6 lifted, 2 failed
c clff: 14548 decisions, 25017381 steps
c clls: 1 sat, 0 simp, 0 freeze, 0 melt
c clls: 2060164 add, 0 assume,, 0 deref, 0 failed
c clls: 0 cassume, 0 mosat
c coll: 19 gcs, 0 rescored clauses
c cgrs: 3 count, 365314 esteps, 97038 csteps
c cgrs: 0 eqs, 0 units
c cgrs: 0 matched (0 ands 0%, 0 xors 0%, 0 ites 0%)
c cgrs: 0 simplified (0 ands 0%, 0 xors 0%, 0 ites 0%)
c cgrs: 2461 extracted (2118 ands 86%, 342 xors 14%, 1 ites 0%)
c dcps: 4 decompositions, 64383 equivalent 30%
c decs: 297187 decision, 296 random 0.100%
c decs: 74632 flipped 25.113% (in 73 phases)
c elms: 3 elims, 9125 eliminated 4%
c elms: 8922 small 98%, 203 large 2%
c elms: 36620 tried small, 8922 succeeded 24%, 27698 failed 76%
c elms: 0 subsumed, 0 strengthened, 198 blocked
c elms: 477455 copies, 328517 resolutions, 975298 ipos
c elms: 0 subchks, 0 strchks
c frcs: 0 computed, 24.4 - 75.6 average min-cut range
c gaus: 3 extractions, 173063 extracted, 2.0 size, 3 max
c gaus: exported 0 units, 1 binary and 0 ternary equations
c gaus: 0 gc, 10000044 steps, 5000022 extr 50%, 2498034 elim 25%
c glue: 7.4 avg, 2.8 scaled avg
c glue: 0 maxredglue=15 (0%)
c lift: 3 phases, 492 probed (164 level1 33%, 328 level2 67%)
c lift: 0 units, 0 equivalences, 0 implications
c hbrs: 28699 hbrs = 28699 trn 100% + 0 lrg 0%, 29 sub 0%
c lrnd: 12474 clauses, 7298 uips 59%, 15.9 length, 7.4 glue
c ints: 574 luby (74357 steps), 0 inout (0 steps)
c mins: 198081 learned lits, 4% minimized
c move: moved 6302, 1302 binary 21%, 5000 ternary 79%
c otfs: str 742 dyn (649 red, 93 irr) 102 drv 14%, 640 rst 86%
c otfs: sub 3 dyn (3 red, 0 irr)
c phas: 2 computed, 7738 set, 1244 pos (16%), 6494 neg (84%)
c prbs: 3 basic, 2320 probed, 0 failed, 0 lifted
c prps: 37369965 props, 95 props/dec
c prps: 75% srch, 25% simp, 0% lkhd
c psns: 1034640 searches, 72821 hits, 7% hit rate
c queu: 37580 new, 14253 del, 120 maximum priority
c queu: 23313 merged, 20929 collected, 5 gcs
c queu: 13216 deprioritized, 20.4 lines on average
c reds: 3 count, 0 reset, 3 acts 100%, 0 exp 0%
c reds: 3 arithmetic 100%, 3 double 100%
c rmbd: 20 removed, 1 red 5%
c rsts: 501 restarts 87%, 72 skipped 13%
c rsts: 97 kept 19.4% average 59.9%
c simp: 3 count (0 ilim 0%, 0 plim 0%, 3 clim 100%)
c trnr: 3 count, 0 bin, 60 trn, 5009539 steps
c tops: 99416 fixed 46%, 0 iterations
c trds: 6 transitive reductions, 46 removed, 0 failed
c trds: 1177 nodes, 1592 edges, 847762 steps
c unhd: 3 count, 3 rounds, 3291923 steps
c unhd: 0 non-trivial sccs of average size 0.0
c unhd: 0 units, 0 bin, 0 trn, 0 lrg
c unhd: 9 failed, 9 stamp, 0 lits, 0 bin, 0 trn, 0 lrg
c unhd: 22819 tauts, 1 bin 0%, 648 trn 3%, 14 lrg 0%
c unhd: 22819 tauts, 22156 stamp 97%, 1634 red 7%
c unhd: 0 hbrs, 0 trn 0%, 0 lrg 0%, 0 red 0%
c unhd: 1182 strd, 0 bin 0%, 6 trn 1%, 1176 lrg 99%, 1174 red 99%
c vars: 44515 remaining 20% and 172924 removed 80% out of 217439
c vars: 99416 fixed 46%, 9125 eliminated 4%, 64383 equivalent 30%
c vsts: 184411205 visits, 77% srch, 23% simp, 0% lkhd
c vsts: 5.1 search visits per propagation 11360.4 per conflict
c wchs: 13566439 pushed, 5130701 enlarged, 32 defrags
c 
c scaledglue  added       reduced       forcing      resolved     conflicts
c 
c all     11192 100      4474 100    163058 100     24323 100      1937 100
c 
c  0          0   0         0   0         0   0         0   0         0   0 
c  1         52   0        20   0       522   0        78   0         2   0 
c  2       3029  27      1468  33     58087  36      5392  22       304  16 
c  3       5250  47<     1874  42<    87382  54<    12554  52<     1046  54<
c  4       2233  20       889  20     16015  10      5263  22       537  28 
c  5        375   3       132   3       669   0       625   3        34   2 
c  6        145   1        48   1       227   0       236   1         8   0 
c  7         56   1        16   0        74   0        88   0         4   0 
c  8         19   0         5   0        25   0        24   0         1   0 
c  9          5   0         0   0         6   0         7   0         0   0 
c 10         19   0        15   0        35   0        42   0         1   0 
c 11          8   0         6   0        15   0        13   0         0   0 
c 12          1   0         1   0         1   0         1   0         0   0 
c 13          0   0         0   0         0   0         0   0         0   0 
c 14          0   0         0   0         0   0         0   0         0   0 
c 15          0   0         0   0         0   0         0   0         0   0 
c 
c avg             3.1           3.0           2.8           3.1           3.2
c std             1.0           1.1           0.7           0.9           0.8
c 
c 297187 decisions, 12576 conflicts, 931.5 conflicts/sec
c 37369965 propagations, 2.8 megaprops/sec
c 13.5 seconds, 46.9 MB
c 
c    0.792   6% analysis
c    0.468   3% block
c    0.056   0% bump
c    0.000   0% card
c    1.188   9% cce
c    0.872   6% cliff
c    0.012   0% cutwidth
c    0.312   2% decide
c    0.000   0% force
c    0.792   6% gc
c    0.280   2% cgrclsr
c    0.384   3% decomp
c    0.204   2% defrag
c    2.908  22% elim
c    0.956   7% gauss
c    0.264   2% lift
c    0.072   1% mincls
c    0.048   0% phase
c    0.120   1% probe
c    0.016   0% reduce
c    0.244   2% restart
c    0.092   1% ternres
c    0.060   0% transred
c    0.304   2% unhide
c ==================================
c    0.020   0% preprocessing     0%
c    7.940  59% inprocessing    100%
c ==================================
c    7.960  59% simplifying
c    0.000   0% lookahead
c    5.532  41% search
c ==================================
c   13.501 100% all
c
s SATISFIABLE
